Maximize
 0
Subject To
 epc_0!1: +10.76930981603546 y_1!1_2!1 +4.079347727178259 y_1!2_2!1 -10.3442861026154 y_1!3_2!1 -34.128482201010996 y_1!1_2!2 +38.31117299993477 y_1!2_2!2 +2.625846939568106 y_1!3_2!2 +36.35012391565439 y_1!1_2!3 -63.695781093664074 y_1!2_2!3 +21.974376357929586 y_1!3_2!3 + lambda_0!1 - mu_0 = 0
 epc_0!2: -44.51792153470415 y_1!1_2!1 +43.40978637331989 y_1!2_2!1 -70.60676627406077 y_1!3_2!1 +77.12764712272295 y_1!1_2!2 +42.50356577016697 y_1!2_2!2 -6.698662890156285 y_1!3_2!2 +70.1161500560992 y_1!1_2!3 +9.118455364736036 y_1!2_2!3 +11.0779486851782 y_1!3_2!3 + lambda_0!2 - mu_0 = 0
 epc_0!3: -37.24003589071563 y_1!1_2!1 +28.63978312184389 y_1!2_2!1 -14.88036578811382 y_1!3_2!1 -70.5077423278205 y_1!1_2!2 +37.145364513833954 y_1!2_2!2 -36.35859616840056 y_1!3_2!2 -95.11582691764417 y_1!1_2!3 +33.87510585215955 y_1!2_2!3 +96.88709508016487 y_1!3_2!3 + lambda_0!3 - mu_0 = 0
 dc_0: x_0!1 + x_0!2 + x_0!3 = 1
 bc_0!1: lambda_0!1 +292.00292199780904 x_0!1 <= 292.00292199780904
 bc_0!2: lambda_0!2 +292.00292199780904 x_0!2 <= 292.00292199780904
 bc_0!3: lambda_0!3 +292.00292199780904 x_0!3 <= 292.00292199780904
 sum_0!1: y_1!1_2!1 - x_1!1 - x_2!1 >= -1
 idk_0!1!1: y_1!1_2!1 - x_1!1 <= 0
 idk_0!1!2: y_1!1_2!1 - x_2!1 <= 0
 sum_0!2: y_1!2_2!1 - x_1!2 - x_2!1 >= -1
 idk_0!2!1: y_1!2_2!1 - x_1!2 <= 0
 idk_0!2!2: y_1!2_2!1 - x_2!1 <= 0
 sum_0!3: y_1!3_2!1 - x_1!3 - x_2!1 >= -1
 idk_0!3!1: y_1!3_2!1 - x_1!3 <= 0
 idk_0!3!2: y_1!3_2!1 - x_2!1 <= 0
 sum_0!4: y_1!1_2!2 - x_1!1 - x_2!2 >= -1
 idk_0!4!1: y_1!1_2!2 - x_1!1 <= 0
 idk_0!4!2: y_1!1_2!2 - x_2!2 <= 0
 sum_0!5: y_1!2_2!2 - x_1!2 - x_2!2 >= -1
 idk_0!5!1: y_1!2_2!2 - x_1!2 <= 0
 idk_0!5!2: y_1!2_2!2 - x_2!2 <= 0
 sum_0!6: y_1!3_2!2 - x_1!3 - x_2!2 >= -1
 idk_0!6!1: y_1!3_2!2 - x_1!3 <= 0
 idk_0!6!2: y_1!3_2!2 - x_2!2 <= 0
 sum_0!7: y_1!1_2!3 - x_1!1 - x_2!3 >= -1
 idk_0!7!1: y_1!1_2!3 - x_1!1 <= 0
 idk_0!7!2: y_1!1_2!3 - x_2!3 <= 0
 sum_0!8: y_1!2_2!3 - x_1!2 - x_2!3 >= -1
 idk_0!8!1: y_1!2_2!3 - x_1!2 <= 0
 idk_0!8!2: y_1!2_2!3 - x_2!3 <= 0
 sum_0!9: y_1!3_2!3 - x_1!3 - x_2!3 >= -1
 idk_0!9!1: y_1!3_2!3 - x_1!3 <= 0
 idk_0!9!2: y_1!3_2!3 - x_2!3 <= 0
 epc_1!1: +74.00392014911935 y_0!1_2!1 -89.66073049258334 y_0!2_2!1 +37.20514522310353 y_0!3_2!1 -40.9283901327055 y_0!1_2!2 -65.81437425325704 y_0!2_2!2 +7.136116972614943 y_0!3_2!2 +59.995000858220095 y_0!1_2!3 +36.079942144103626 y_0!2_2!3 -82.92318053907013 y_0!3_2!3 + lambda_1!1 - mu_1 = 0
 epc_1!2: +64.26518909448191 y_0!1_2!1 +5.949618993186448 y_0!2_2!1 +56.98162400726318 y_0!3_2!1 +25.25540525742403 y_0!1_2!2 +48.80315195327543 y_0!2_2!2 +0.570222455013635 y_0!3_2!2 +33.02010104622255 y_0!1_2!3 +67.7646541021796 y_0!2_2!3 -25.071931444207294 y_0!3_2!3 + lambda_1!2 - mu_1 = 0
 epc_1!3: -83.47900261050805 y_0!1_2!1 -41.19232372869632 y_0!2_2!1 -55.0226173246694 y_0!3_2!1 +89.26136002567492 y_0!1_2!2 +49.47367780648534 y_0!2_2!2 +0.7729154647666974 y_0!3_2!2 +86.77059434637547 y_0!1_2!3 +74.79079608536455 y_0!2_2!3 -46.352641818045925 y_0!3_2!3 + lambda_1!3 - mu_1 = 0
 dc_1: x_1!1 + x_1!2 + x_1!3 = 1
 bc_1!1: lambda_1!1 +292.00292199780904 x_1!1 <= 292.00292199780904
 bc_1!2: lambda_1!2 +292.00292199780904 x_1!2 <= 292.00292199780904
 bc_1!3: lambda_1!3 +292.00292199780904 x_1!3 <= 292.00292199780904
 sum_1!1: y_0!1_2!1 - x_0!1 - x_2!1 >= -1
 idk_1!1!0: y_0!1_2!1 - x_0!1 <= 0
 idk_1!1!2: y_0!1_2!1 - x_2!1 <= 0
 sum_1!2: y_0!2_2!1 - x_0!2 - x_2!1 >= -1
 idk_1!2!0: y_0!2_2!1 - x_0!2 <= 0
 idk_1!2!2: y_0!2_2!1 - x_2!1 <= 0
 sum_1!3: y_0!3_2!1 - x_0!3 - x_2!1 >= -1
 idk_1!3!0: y_0!3_2!1 - x_0!3 <= 0
 idk_1!3!2: y_0!3_2!1 - x_2!1 <= 0
 sum_1!4: y_0!1_2!2 - x_0!1 - x_2!2 >= -1
 idk_1!4!0: y_0!1_2!2 - x_0!1 <= 0
 idk_1!4!2: y_0!1_2!2 - x_2!2 <= 0
 sum_1!5: y_0!2_2!2 - x_0!2 - x_2!2 >= -1
 idk_1!5!0: y_0!2_2!2 - x_0!2 <= 0
 idk_1!5!2: y_0!2_2!2 - x_2!2 <= 0
 sum_1!6: y_0!3_2!2 - x_0!3 - x_2!2 >= -1
 idk_1!6!0: y_0!3_2!2 - x_0!3 <= 0
 idk_1!6!2: y_0!3_2!2 - x_2!2 <= 0
 sum_1!7: y_0!1_2!3 - x_0!1 - x_2!3 >= -1
 idk_1!7!0: y_0!1_2!3 - x_0!1 <= 0
 idk_1!7!2: y_0!1_2!3 - x_2!3 <= 0
 sum_1!8: y_0!2_2!3 - x_0!2 - x_2!3 >= -1
 idk_1!8!0: y_0!2_2!3 - x_0!2 <= 0
 idk_1!8!2: y_0!2_2!3 - x_2!3 <= 0
 sum_1!9: y_0!3_2!3 - x_0!3 - x_2!3 >= -1
 idk_1!9!0: y_0!3_2!3 - x_0!3 <= 0
 idk_1!9!2: y_0!3_2!3 - x_2!3 <= 0
 epc_2!1: -49.13896129135633 y_0!1_1!1 -64.54020028479859 y_0!2_1!1 -32.78562911857961 y_0!3_1!1 -77.9002132265914 y_0!1_1!2 -10.43219272545997 y_0!2_1!2 +50.252761000447805 y_0!3_1!2 +44.958514290198934 y_0!1_1!3 -19.179409903461504 y_0!2_1!3 -42.282338831507495 y_0!3_1!3 + lambda_2!1 - mu_2 = 0
 epc_2!2: +95.27166565101658 y_0!1_1!1 +19.74076584140998 y_0!2_1!1 +61.110073415403946 y_0!3_1!1 -70.11142765278684 y_0!1_1!2 +77.74442522667962 y_0!2_1!2 -17.09919837462101 y_0!3_1!2 -47.90932933581536 y_0!1_1!3 -21.599182851224754 y_0!2_1!3 +98.4374458908699 y_0!3_1!3 + lambda_2!2 - mu_2 = 0
 epc_2!3: +68.27187283724533 y_0!1_1!1 -25.254562533626967 y_0!2_1!1 +76.2474546240876 y_0!3_1!1 -14.816973568479241 y_0!1_1!2 -85.79482379192811 y_0!2_1!2 +45.73314726094125 y_0!3_1!2 -60.512015622179604 y_0!1_1!3 -52.57022841266894 y_0!2_1!3 -2.4260120365907625 y_0!3_1!3 + lambda_2!3 - mu_2 = 0
 dc_2: x_2!1 + x_2!2 + x_2!3 = 1
 bc_2!1: lambda_2!1 +292.00292199780904 x_2!1 <= 292.00292199780904
 bc_2!2: lambda_2!2 +292.00292199780904 x_2!2 <= 292.00292199780904
 bc_2!3: lambda_2!3 +292.00292199780904 x_2!3 <= 292.00292199780904
 sum_2!1: y_0!1_1!1 - x_0!1 - x_1!1 >= -1
 idk_2!1!0: y_0!1_1!1 - x_0!1 <= 0
 idk_2!1!1: y_0!1_1!1 - x_1!1 <= 0
 sum_2!2: y_0!2_1!1 - x_0!2 - x_1!1 >= -1
 idk_2!2!0: y_0!2_1!1 - x_0!2 <= 0
 idk_2!2!1: y_0!2_1!1 - x_1!1 <= 0
 sum_2!3: y_0!3_1!1 - x_0!3 - x_1!1 >= -1
 idk_2!3!0: y_0!3_1!1 - x_0!3 <= 0
 idk_2!3!1: y_0!3_1!1 - x_1!1 <= 0
 sum_2!4: y_0!1_1!2 - x_0!1 - x_1!2 >= -1
 idk_2!4!0: y_0!1_1!2 - x_0!1 <= 0
 idk_2!4!1: y_0!1_1!2 - x_1!2 <= 0
 sum_2!5: y_0!2_1!2 - x_0!2 - x_1!2 >= -1
 idk_2!5!0: y_0!2_1!2 - x_0!2 <= 0
 idk_2!5!1: y_0!2_1!2 - x_1!2 <= 0
 sum_2!6: y_0!3_1!2 - x_0!3 - x_1!2 >= -1
 idk_2!6!0: y_0!3_1!2 - x_0!3 <= 0
 idk_2!6!1: y_0!3_1!2 - x_1!2 <= 0
 sum_2!7: y_0!1_1!3 - x_0!1 - x_1!3 >= -1
 idk_2!7!0: y_0!1_1!3 - x_0!1 <= 0
 idk_2!7!1: y_0!1_1!3 - x_1!3 <= 0
 sum_2!8: y_0!2_1!3 - x_0!2 - x_1!3 >= -1
 idk_2!8!0: y_0!2_1!3 - x_0!2 <= 0
 idk_2!8!1: y_0!2_1!3 - x_1!3 <= 0
 sum_2!9: y_0!3_1!3 - x_0!3 - x_1!3 >= -1
 idk_2!9!0: y_0!3_1!3 - x_0!3 <= 0
 idk_2!9!1: y_0!3_1!3 - x_1!3 <= 0
Bounds
 mu_0 free
 mu_1 free
 mu_2 free
Binary
 x_0!1 x_0!2 x_0!3 x_1!1 x_1!2 x_1!3 x_2!1 x_2!2 x_2!3
End
